Random 0 DD_pt 
35 20 35 30 31 18 21 35 21 35 8 36 26 18 34 12 22 33 18 30 32 30 35 37 29 8 21 24 37 20 36 35 37 13 31 8 38 8 24 24 37 33 35 8 21 27 39 15 35 32

Random 0 DD 
35 20 36 30 31 18 21 35 21 35 8 36 26 18 34 12 22 33 18 30 32 30 36 37 29 8 21 24 37 20 36 35 37 13 31 8 35 8 24 24 37 33 35 8 21 27 39 36 35 32

EDD 0 DD_pt 
35 39 36 30 33 29 21 36 21 39 34 39 31 18 34 27 38 33 34 30 32 32 38 37 34 8 21 39 39 20 36 36 37 34 31 8 39 8 24 24 38 33 39 8 21 27 39 39 35 32

EDD 0 DD 
35 39 36 30 33 29 21 36 21 39 34 39 31 18 34 27 38 33 34 30 32 38 38 37 34 8 21 39 39 20 36 39 37 34 31 8 39 8 24 24 38 33 39 8 21 27 39 39 35 32

Q 1000 DD_pt 
8 18 36 30 31 18 21 25 21 35 8 38 26 18 34 11 22 19 18 30 32 30 36 37 29 8 21 24 37 20 36 25 37 13 31 8 35 8 17 24 37 33 35 8 8 13 19 36 35 32

Q 10000 DD_pt 
35 18 36 30 31 18 8 35 8 35 8 38 26 8 8 12 22 33 8 30 32 30 36 37 29 8 21 24 37 20 36 27 37 13 24 8 35 8 22 24 37 33 35 8 8 8 19 36 35 32

Q 100000 DD_pt 
35 20 36 30 31 18 8 25 8 35 8 36 26 8 8 12 15 33 8 30 32 30 36 37 29 8 21 24 37 20 36 35 37 13 24 8 38 8 21 24 37 33 33 8 8 24 19 36 35 32

Q 1000 DD 
35 20 36 30 31 18 21 35 21 35 8 38 26 8 34 12 15 33 18 30 32 30 36 37 29 8 21 24 37 20 36 35 37 13 24 8 35 8 22 24 37 33 35 8 21 27 39 36 35 32

Q 10000 DD 
35 20 36 30 31 18 21 35 21 35 8 38 26 8 34 12 22 33 18 30 32 30 36 37 29 8 21 24 37 20 36 27 37 13 24 8 35 8 24 24 37 33 35 8 21 27 39 36 35 32

Q 100000 DD 
35 20 36 30 31 18 21 35 21 35 8 38 26 8 34 12 22 33 18 30 32 30 36 37 29 8 21 24 37 20 36 35 37 13 31 8 38 8 24 24 37 33 35 8 21 27 19 36 35 32

Q 1000 random 
35 20 36 30 31 18 21 35 21 35 8 38 26 18 34 12 22 33 18 30 32 30 36 37 29 8 21 24 37 20 36 35 37 13 31 8 38 8 24 24 37 33 35 8 21 27 39 36 35 32

Q 10000 random 
35 20 36 30 17 18 21 35 21 35 8 38 26 18 34 12 22 33 18 30 32 30 36 37 29 8 21 24 37 20 35 35 37 13 31 8 38 8 22 24 37 33 33 8 21 24 39 36 35 9

Q 100000 random 
35 20 36 30 31 18 21 35 21 35 8 38 26 18 34 12 22 33 18 30 32 30 36 37 29 8 21 24 37 20 36 27 37 13 31 8 38 8 24 24 37 33 35 8 21 27 39 36 35 32

sarsa 1000 DD_pt 
35 20 36 30 31 18 8 35 8 35 8 38 26 8 8 12 22 33 8 30 32 30 35 37 29 8 21 24 37 20 36 27 37 13 31 8 35 8 22 24 37 33 35 8 8 27 19 36 35 32

sarsa 10000 DD_pt 
35 18 36 30 31 18 8 25 8 35 8 36 26 8 8 12 15 33 8 30 32 30 36 37 29 8 21 24 37 20 36 35 37 8 24 8 35 8 22 24 37 33 35 8 8 24 19 36 35 32

sarsa 100000 DD_pt 
35 20 36 30 31 8 8 25 8 35 8 36 26 8 8 12 15 33 8 30 32 30 36 37 29 8 21 24 37 20 36 27 37 8 24 8 38 8 22 24 37 33 35 8 21 24 19 36 31 32

sarsa 1000 DD 
35 18 36 30 31 18 21 35 21 35 8 38 26 8 34 12 22 33 18 30 32 30 36 37 29 8 21 24 37 20 36 27 37 8 31 8 38 8 24 24 37 33 35 8 21 27 39 36 35 32

sarsa 10000 DD 
35 20 36 30 31 18 21 35 21 35 8 36 26 18 34 12 22 33 18 30 32 30 35 37 29 8 21 24 37 20 36 35 37 13 31 8 38 8 24 24 37 33 35 8 21 24 19 36 35 32

sarsa 100000 DD 
35 18 36 30 31 18 21 35 21 35 8 38 26 8 34 12 22 33 18 30 32 30 35 37 29 8 21 24 37 20 36 35 37 13 31 8 38 8 22 24 37 33 35 8 21 27 39 36 35 32

sarsa 1000 random 
35 20 36 30 31 18 21 35 21 35 8 38 26 18 34 12 22 33 18 30 32 30 35 37 29 8 21 24 37 20 36 35 37 13 31 8 38 8 24 24 37 33 35 8 21 27 39 36 35 32

sarsa 10000 random 
35 20 36 30 31 18 21 35 21 35 8 38 26 18 34 12 22 33 18 30 32 30 36 37 29 8 21 24 37 20 36 35 37 13 31 8 38 8 24 24 37 33 35 8 21 27 39 36 35 32

sarsa 100000 random 
35 20 36 30 31 18 21 35 21 35 8 38 26 18 34 12 22 33 18 30 32 30 35 37 29 8 21 24 37 20 36 35 37 13 31 8 38 8 22 24 37 33 35 8 21 24 39 36 35 32Random 0 DD_pt 
0 0 0 0 0 0 0 0 0 0 0 0 0 0 0 0 0 0 0 0 0 0 0 0 0 0 0 0 0 0 0 0 0 0 0 0 0 0 0 0 0 0 0 0 0 0 0 0 0 0

Random 0 DD 
0 0 0 0 0 0 0 0 0 0 0 0 0 0 0 0 0 0 0 0 0 0 0 0 0 0 0 0 0 0 0 0 0 0 0 0 0 0 0 0 0 0 0 0 0 0 0 0 0 0

EDD 0 DD_pt 
0 1117 0 0 0 0 0 0 0 0 0 2091 0 0 0 0 0 0 0 0 0 4 45 0 0 0 0 0 0 0 0 26 0 0 0 0 0 0 0 0 0 0 599 0 0 0 0 0 0 0

EDD 0 DD 
0 1322 0 0 2 0 0 0 0 0 0 2422 0 0 0 0 5 0 0 0 0 19 86 0 0 0 0 0 0 0 0 40 0 0 0 0 0 0 0 0 0 0 706 0 0 0 0 0 0 0

Q 1000 DD_pt 
0 0 0 0 0 0 0 0 0 0 0 0 0 0 0 0 0 0 0 0 0 0 0 0 0 0 0 0 0 0 0 0 0 0 0 0 0 0 0 0 0 0 0 0 0 0 0 0 0 0

Q 10000 DD_pt 
0 0 0 0 0 0 0 0 0 0 0 0 0 0 0 0 0 0 0 0 0 0 0 0 0 0 0 0 0 0 0 0 0 0 0 0 0 0 0 0 0 0 0 0 0 0 0 0 0 0

Q 100000 DD_pt 
0 0 0 0 0 0 0 0 0 0 0 0 0 0 0 0 0 0 0 0 0 0 0 0 0 0 0 0 0 0 0 0 0 0 0 0 0 0 0 0 0 0 0 0 0 0 0 0 0 0

Q 1000 DD 
0 0 0 0 0 0 0 0 0 0 0 0 0 0 0 0 0 0 0 0 0 0 0 0 0 0 0 0 0 0 0 0 0 0 0 0 0 0 0 0 0 0 0 0 0 0 0 0 0 0

Q 10000 DD 
0 0 0 0 0 0 0 0 0 0 0 0 0 0 0 0 0 0 0 0 0 0 0 0 0 0 0 0 0 0 0 0 0 0 0 0 0 0 0 0 0 0 0 0 0 0 0 0 0 0

Q 100000 DD 
0 0 0 0 0 0 0 0 0 0 0 0 0 0 0 0 0 0 0 0 0 0 0 0 0 0 0 0 0 0 0 0 0 0 0 0 0 0 0 0 0 0 0 0 0 0 0 0 0 0

Q 1000 random 
0 0 0 0 0 0 0 0 0 0 0 0 0 0 0 0 0 0 0 0 0 0 0 0 0 0 0 0 0 0 0 0 0 0 0 0 0 0 0 0 0 0 0 0 0 0 0 0 0 0

Q 10000 random 
0 0 0 0 0 0 0 0 0 0 0 0 0 0 0 0 0 0 0 0 0 0 0 0 0 0 0 0 0 0 0 0 0 0 0 0 0 0 0 0 0 0 0 0 0 0 0 0 0 0

Q 100000 random 
0 0 0 0 0 0 0 0 0 0 0 0 0 0 0 0 0 0 0 0 0 0 0 0 0 0 0 0 0 0 0 0 0 0 0 0 0 0 0 0 0 0 0 0 0 0 0 0 0 0

sarsa 1000 DD_pt 
0 0 0 0 0 0 0 0 0 0 0 0 0 0 0 0 0 0 0 0 0 0 0 0 0 0 0 0 0 0 0 0 0 0 0 0 0 0 0 0 0 0 0 0 0 0 0 0 0 0

sarsa 10000 DD_pt 
0 0 0 0 0 0 0 0 0 0 0 0 0 0 0 0 0 0 0 0 0 0 0 0 0 0 0 0 0 0 0 0 0 0 0 0 0 0 0 0 0 0 0 0 0 0 0 0 0 0

sarsa 100000 DD_pt 
0 0 0 0 0 0 0 0 0 0 0 0 0 0 0 0 0 0 0 0 0 0 0 0 0 0 0 0 0 0 0 0 0 0 0 0 0 0 0 0 0 0 0 0 0 0 0 0 0 0

sarsa 1000 DD 
0 0 0 0 0 0 0 0 0 0 0 0 0 0 0 0 0 0 0 0 0 0 0 0 0 0 0 0 0 0 0 0 0 0 0 0 0 0 0 0 0 0 0 0 0 0 0 0 0 0

sarsa 10000 DD 
0 0 0 0 0 0 0 0 0 0 0 0 0 0 0 0 0 0 0 0 0 0 0 0 0 0 0 0 0 0 0 0 0 0 0 0 0 0 0 0 0 0 0 0 0 0 0 0 0 0

sarsa 100000 DD 
0 0 0 0 0 0 0 0 0 0 0 0 0 0 0 0 0 0 0 0 0 0 0 0 0 0 0 0 0 0 0 0 0 0 0 0 0 0 0 0 0 0 0 0 0 0 0 0 0 0

sarsa 1000 random 
0 0 0 0 0 0 0 0 0 0 0 0 0 0 0 0 0 0 0 0 0 0 0 0 0 0 0 0 0 0 0 0 0 0 0 0 0 0 0 0 0 0 0 0 0 0 0 0 0 0

sarsa 10000 random 
0 0 0 0 0 0 0 0 0 0 0 0 0 0 0 0 0 0 0 0 0 0 0 0 0 0 0 0 0 0 0 0 0 0 0 0 0 0 0 0 0 0 0 0 0 0 0 0 0 0

sarsa 100000 random 
0 0 0 0 0 0 0 0 0 0 0 0 0 0 0 0 0 0 0 0 0 0 0 0 0 0 0 0 0 0 0 0 0 0 0 0 0 0 0 0 0 0 0 0 0 0 0 0 0 0

sarsa 10000 DD_pt 
35 18 36 30 31 18 8 25 8 35 8 36 26 8 8 12 15 33 8 30 32 30 36 37 29 8 21 24 37 20 36 35 37 8 24 8 35 8 22 24 37 33 35 8 8 24 19 36 35 32

sarsa 10000 DD_pt 
35 18 36 30 31 18 8 25 8 35 8 36 26 8 8 12 15 33 8 30 32 30 36 37 29 8 21 24 37 20 36 35 37 8 24 8 35 8 22 24 37 33 35 8 8 24 19 36 35 32

sarsa 10000 DD_pt 
35 18 36 30 31 18 8 25 8 35 8 36 26 8 8 12 15 33 8 30 32 30 36 37 29 8 21 24 37 20 36 35 37 8 24 8 35 8 22 24 37 33 35 8 8 24 19 36 35 32

sarsa 10000 DD_pt 
35 18 36 30 31 18 8 25 8 35 8 36 26 8 8 12 15 33 8 30 32 30 36 37 29 8 21 24 37 20 36 35 37 8 24 8 35 8 22 24 37 33 35 8 8 24 19 36 35 32

sarsa 50 DD 
30 37 8 19 30 31 30 31 38 8 25 35 38 39 37 30 29 30 8 36 35 20 35 27 35 38 39 37 28 17 27 34 38 38 26 29 19 29 11 26 36 37 35 13 38 22 37 22 39 30

sarsa 50 DD 
30 37 29 19 30 31 30 31 38 8 24 35 38 39 37 30 29 30 8 36 35 20 35 27 35 38 39 37 28 11 35 34 38 38 26 29 19 29 11 26 36 37 35 13 38 22 37 22 39 30 37 34 22 13 35 38 37 28 34 39 26 39 21 27 8 35 8 38 23 8 28 32 13 35 25 29 35 8 14 13 39 21 20 29 18 23 31 32 18 35 19 17 22 31 29 27 33 22 9 21

sarsa 50 DD 
37 35 8 19 30 31 30 31 38 34 30 35 38 39 37 30 29 30 8 36 35 31 35 27 35 38 39 37 28 17 27 23 38 24 26 29 19 29 11 26 36 37 35 13 38 22 37 22 39 30 37 34 22 13 35 38 37 28 34 39 26 39 21 39 21 35 31 38 23 8 28 32 13 35 25 29 35 8 14 13 39 21 25 29 18 23 31 32 32 35 8 17 22 31 29 27 33 22 9 21

